14946 15754 15313
12126 14466 16677
14126 14694 16475
14303 16189 13330
15492 14700 15636
12737 13654 16778
14236 14235 16590
16420 12844 12847
15467 13967 15667
15127 13615 15946
12897 15659 16381
13249 13483 16733
12946 16402 14471
14277 16005 15531
13783 16235 14810
13279 16199 15516
12274 16288 15440
13724 14406 16635
16190 13946 14267
15129 15328 15729
16017 14887 14791
15341 13502 15786
16141 14224 14387
13010 16376 14652
14518 16088 14017
11101 13927 16786
15439 15616 14197
12636 16397 14651
16382 12592 13194
13406 16347 13848
15888 15294 14605
13910 15135 16322
15418 14264 15718
